(declare-const X String)
; FreeAccessBar\s+hostie[^\n\r]*CodeguruBrowser\dStableWeb-MailUser-Agent\x3A195\.225\.Subject\x3A
(assert (str.in.re X (re.++ (str.to.re "FreeAccessBar") (re.+ (re.union (str.to.re " ") (str.to.re "\x09") (str.to.re "\x0a") (str.to.re "\x0c") (str.to.re "\x0d"))) (str.to.re "hostie") (re.* (re.union (str.to.re "\x0a") (str.to.re "\x0d"))) (str.to.re "CodeguruBrowser") (re.range "0" "9") (str.to.re "StableWeb-MailUser-Agent:195.225.Subject:\x0a"))))
; Stablecmemailyxegtd\x2fefcwgUin=PromulGate
(assert (not (str.in.re X (str.to.re "Stablecmemailyxegtd/efcwgUin=PromulGate\x0a"))))
; ^[0-9]{4}-(0[1-9]|1[0-2])-(0[1-9]|[1-2][0-9]|3[0-2]) ([0-1][0-9]|2[0-4]):([0-4][0-9]|5[0-9]):([0-4][0-9]|5[0-9])$
(assert (not (str.in.re X (re.++ ((_ re.loop 4 4) (re.range "0" "9")) (str.to.re "-") (re.union (re.++ (str.to.re "0") (re.range "1" "9")) (re.++ (str.to.re "1") (re.range "0" "2"))) (str.to.re "-") (re.union (re.++ (str.to.re "0") (re.range "1" "9")) (re.++ (re.range "1" "2") (re.range "0" "9")) (re.++ (str.to.re "3") (re.range "0" "2"))) (str.to.re " ") (re.union (re.++ (re.range "0" "1") (re.range "0" "9")) (re.++ (str.to.re "2") (re.range "0" "4"))) (str.to.re ":") (re.union (re.++ (re.range "0" "4") (re.range "0" "9")) (re.++ (str.to.re "5") (re.range "0" "9"))) (str.to.re ":") (re.union (re.++ (re.range "0" "4") (re.range "0" "9")) (re.++ (str.to.re "5") (re.range "0" "9"))) (str.to.re "\x0a")))))
; ^[{|\(]?[0-9a-fA-F]{8}[-]?([0-9a-fA-F]{4}[-]?){3}[0-9a-fA-F]{12}[\)|}]?$
(assert (not (str.in.re X (re.++ (re.opt (re.union (str.to.re "{") (str.to.re "|") (str.to.re "("))) ((_ re.loop 8 8) (re.union (re.range "0" "9") (re.range "a" "f") (re.range "A" "F"))) (re.opt (str.to.re "-")) ((_ re.loop 3 3) (re.++ ((_ re.loop 4 4) (re.union (re.range "0" "9") (re.range "a" "f") (re.range "A" "F"))) (re.opt (str.to.re "-")))) ((_ re.loop 12 12) (re.union (re.range "0" "9") (re.range "a" "f") (re.range "A" "F"))) (re.opt (re.union (str.to.re ")") (str.to.re "|") (str.to.re "}"))) (str.to.re "\x0a")))))
; ^((\d(\x20)\d{2}(\x20)\d{2}(\x20)\d{2}(\x20)\d{3}(\x20)\d{3}((\x20)\d{2}|))|(\d\d{2}\d{2}\d{2}\d{3}\d{3}(\d{2}|)))$
(assert (str.in.re X (re.++ (re.union (re.++ (re.range "0" "9") (str.to.re " ") ((_ re.loop 2 2) (re.range "0" "9")) (str.to.re " ") ((_ re.loop 2 2) (re.range "0" "9")) (str.to.re " ") ((_ re.loop 2 2) (re.range "0" "9")) (str.to.re " ") ((_ re.loop 3 3) (re.range "0" "9")) (str.to.re " ") ((_ re.loop 3 3) (re.range "0" "9")) (str.to.re " ") ((_ re.loop 2 2) (re.range "0" "9"))) (re.++ (re.range "0" "9") ((_ re.loop 2 2) (re.range "0" "9")) ((_ re.loop 2 2) (re.range "0" "9")) ((_ re.loop 2 2) (re.range "0" "9")) ((_ re.loop 3 3) (re.range "0" "9")) ((_ re.loop 3 3) (re.range "0" "9")) ((_ re.loop 2 2) (re.range "0" "9")))) (str.to.re "\x0a"))))
(check-sat)
